c turning on binary mode checking
c parsing input formula with 259840 variables and 1039929 clauses
c finished parsing, read 23014196 bytes from proof file
c detected empty clause; start verification via backward checking
c 19061 of 1039929 clauses in core                            
c 20965 of 605547 lemmas in core using 225233 resolution steps
c 0 RAT lemmas in core; 1662 redundant literals in core lemmas
s VERIFIED
c verification time: 3.546 seconds
